mini_project/miniprj.out


z = 217340 

:    X     Y  Hi   Fi Work  Sub  Back   Inv     :=
1   2600   0   0   15   65    0     0   2000
2   2600   0   0    0   65    0     0   1600
3   2600   0   0    0   65    0     0   1000
4   2560   0   0    1   64   20   220      0
5   2560   0   0    0   64    0     0    140
6   2560   0   0    0   64    0     0    500
;

